\ Model NCP
\ LP format - for model browsing. Use MPS format to capture full model detail.
Minimize
  0 F9
Subject To
 R0: C1 + C7 + C13 = 1
 R1: C1 + C3 + C5 = 0
 R2: C3 - C7 - C11 + C15 = 0
 R3: C5 + C11 + C17 = 0
 R4: C13 + C15 + C17 = 1
 R5: C2 <= 10000
 R6: C4 <= 500
 R7: C6 <= 500
 R8: C8 <= 500
 R9: C10 <= 10000
 R10: C12 <= 500
 R11: C14 <= 500
 R12: C16 <= 500
 R13: C18 <= 10000
 R14: - 1e+06 C1 + C2 >= -999700
 R15: - 1e+06 C3 + C4 >= -999700
 R16: - 1e+06 C5 + C6 >= -999700
 R17: - 1e+06 C7 + C8 >= -999700
 R18: - 1e+06 C9 + C10 >= -999700
 R19: - 1e+06 C11 + C12 >= -999700
 R20: - 1e+06 C13 + C14 >= -999700
 R21: - 1e+06 C15 + C16 >= -999700
 R22: - 1e+06 C17 + C18 >= -999700
 R23: C23 = 0
 R24: - 1e+06 C1 >= -1e+06
 R25: - 1e+06 C3 - C19 + C21 >= -999999.92
 R26: - 1e+06 C5 - C19 + C23 >= -999999.92
 R27: - 1e+06 C7 + C19 - C21 >= -999999.92
 R28: - 1e+06 C9 >= -1e+06
 R29: - 1e+06 C11 - C21 + C23 >= -999999.92
 R30: - 1e+06 C13 + C19 - C23 >= -999999.92
 R31: - 1e+06 C15 + C21 - C23 >= -999999.92
 R32: - 1e+06 C17 >= -1e+06
 R33: C24 = 0
 R34: - 1e+06 C1 >= -1e+06
 R35: - 1e+06 C3 - C20 + C22 >= -999999.92
 R36: - 1e+06 C5 - C20 + C24 >= -999999.92
 R37: - 1e+06 C7 + C20 - C22 >= -999999.92
 R38: - 1e+06 C9 >= -1e+06
 R39: - 1e+06 C11 - C22 + C24 >= -999999.92
 R40: - 1e+06 C13 + C20 - C24 >= -999999.92
 R41: - 1e+06 C15 + C22 - C24 >= -999999.92
 R42: - 1e+06 C17 >= -1e+06
Bounds
 C2 <= 300
 C4 <= 300
 C6 <= 300
 C8 <= 300
 C10 <= 300
 C12 <= 300
 C14 <= 300
 C16 <= 300
 C18 <= 300
 C19 <= 0.3933210004380376
 C20 <= 0.5246847938300931
 C21 <= 0.3933210004380376
 C22 <= 0.5246847938300931
 C23 <= 0.3933210004380376
 C24 <= 0.5246847938300931
Binaries
 F9 C1 C3 C5 C7 C9 C11 C13 C15 C17
End
